NAME: instance_2143
TYPE: TSP
DIMENSION: 20
EDGE_WEIGHT_TYPE: EUC_2D
NODE_COORD_SECTION
0 98.38 18.05
1 16.53 65.16
2 91.64 17.87
3 4.04 68.47
4 55.63 39.97
5 88.65 99.48
6 15.23 67.51
7 94.67 37.20
8 22.20 79.97
9 35.55 40.50
10 22.78 45.70
11 54.16 30.39
12 66.86 95.29
13 94.28 14.84
14 75.42 79.16
15 19.88 75.31
16 52.28 22.49
17 4.97 95.60
18 65.81 80.53
19 22.97 13.44
EOF
